\ Model CG master problem model_copy
\ LP format - for model browsing. Use MPS format to capture full model detail.
Maximize
 
Subject To
 MAB[47,1]: 556032.1899999999 lambda_var[0,0]
   + 1.0641883495499999e+06 lambda_var[0,1]
   + 1.0641883495499999e+06 lambda_var[0,2]
   + 2.5267124915200002e+06 lambda_var[0,3]
   + 2.5267124915200002e+06 lambda_var[0,4]
   + 2.5267124915200002e+06 lambda_var[0,5]
   + 2.5267124915200002e+06 lambda_var[0,6]
   + 2.5267124915200002e+06 lambda_var[0,7]
   + 1.0641883495499999e+06 lambda_var[0,8]
   + 2.5267124915200002e+06 lambda_var[0,9]
   + 2.5267124915200002e+06 lambda_var[0,10]
   + 2.5267124915200002e+06 lambda_var[0,11] + 3.12e+06 lambda_var[0,12]
   + 3.12e+06 lambda_var[0,13] + 3.12e+06 lambda_var[0,14]
   + 3.12e+06 lambda_var[0,15] + 3.12e+06 lambda_var[0,16]
   + 3.12e+06 lambda_var[0,17] + 3.12e+06 lambda_var[0,18]
   + 3.12e+06 lambda_var[0,19] + 3.12e+06 lambda_var[0,20]
   + 3.12e+06 lambda_var[0,21] + 1.0641883495499999e+06 lambda_var[0,22]
   + 2.5267124915200002e+06 lambda_var[0,23]
   + 2.5267124915200002e+06 lambda_var[0,24]
   + 1.0641883495499999e+06 lambda_var[0,25] + 788788.7482 lambda_var[0,26]
   + 788788.7482 lambda_var[0,27] + 788788.7482 lambda_var[0,28]
   + 788788.7482 lambda_var[0,29] + 788788.7482 lambda_var[0,30]
   + 788788.7482 lambda_var[0,31] + 788788.7482 lambda_var[0,32]
   + 788788.7482 lambda_var[0,33] + 788788.7482 lambda_var[0,34]
   + 788788.7482 lambda_var[0,35] + 788788.7482 lambda_var[0,36]
   + 3.0256075958799999e+06 lambda_var[1,1]
   + 3.0256075958799999e+06 lambda_var[1,2]
   + 3.0256075958799999e+06 lambda_var[1,4]
   + 3.0256075958799999e+06 lambda_var[1,5]
   + 3.0256075958799999e+06 lambda_var[1,6]
   + 3.0256075958799999e+06 lambda_var[1,7]
   + 2.7197625148299998e+06 lambda_var[1,8]
   + 1.17067697114e+06 lambda_var[1,9] + 1.17067697114e+06 lambda_var[1,10]
   + 1.17067697114e+06 lambda_var[1,11]
   + 3.0256075958799999e+06 lambda_var[1,12]
   + 3.0256075958799999e+06 lambda_var[1,13]
   + 2.9275779994700002e+06 lambda_var[1,14]
   + 1.17067697114e+06 lambda_var[1,15]
   + 1.17067697114e+06 lambda_var[1,16]
   + 1.17067697114e+06 lambda_var[1,17]
   + 1.17067697114e+06 lambda_var[1,18]
   + 3.0256075958799999e+06 lambda_var[1,19]
   + 3.0256075958799999e+06 lambda_var[1,20]
   + 3.0256075958799999e+06 lambda_var[1,21]
   + 3.0256075958799999e+06 lambda_var[1,22]
   + 3.0256075958799999e+06 lambda_var[1,23]
   + 3.0256075958799999e+06 lambda_var[1,24]
   + 2.7197625148299998e+06 lambda_var[1,25]
   + 3.0256075958799999e+06 lambda_var[1,26]
   + 3.0256075958799999e+06 lambda_var[1,27]
   + 3.0256075958799999e+06 lambda_var[1,28]
   + 3.0256075958799999e+06 lambda_var[1,29]
   + 3.0256075958799999e+06 lambda_var[1,30]
   + 3.0256075958799999e+06 lambda_var[1,31]
   + 3.0256075958799999e+06 lambda_var[1,32]
   + 3.0256075958799999e+06 lambda_var[1,33]
   + 3.0256075958799999e+06 lambda_var[1,34]
   + 3.0256075958799999e+06 lambda_var[1,35]
   + 3.0256075958799999e+06 lambda_var[1,36] <= 5.000005e+06
 MAB[57,0]: 1.8218036699999999e+06 lambda_var[0,0]
   + 2.4867445840599998e+06 lambda_var[0,1]
   + 2.4867445840599998e+06 lambda_var[0,2] + 350087.79792 lambda_var[0,3]
   + 350087.79792 lambda_var[0,4] + 350087.79792 lambda_var[0,5]
   + 350087.79792 lambda_var[0,6] + 350087.79792 lambda_var[0,7]
   + 2.4867445840599998e+06 lambda_var[0,8] + 350087.79792 lambda_var[0,9]
   + 350087.79792 lambda_var[0,10] + 350087.79792 lambda_var[0,11]
   + 350087.79792 lambda_var[0,12] + 350087.79792 lambda_var[0,13]
   + 350087.79792 lambda_var[0,14] + 350087.79792 lambda_var[0,15]
   + 350087.79792 lambda_var[0,16] + 350087.79792 lambda_var[0,17]
   + 350087.79792 lambda_var[0,18] + 350087.79792 lambda_var[0,19]
   + 350087.79792 lambda_var[0,20] + 350087.79792 lambda_var[0,21]
   + 2.4867445840599998e+06 lambda_var[0,22]
   + 350087.79792 lambda_var[0,23] + 350087.79792 lambda_var[0,24]
   + 2.4867445840599998e+06 lambda_var[0,25]
   + 1.8364845596700001e+06 lambda_var[0,26]
   + 2.1221403173600002e+06 lambda_var[0,27]
   + 2.1221403173600002e+06 lambda_var[0,28]
   + 2.1221403173600002e+06 lambda_var[0,29]
   + 2.1221403173600002e+06 lambda_var[0,30]
   + 2.1221403173600002e+06 lambda_var[0,31]
   + 2.1221403173600002e+06 lambda_var[0,32]
   + 2.1221403173600002e+06 lambda_var[0,33]
   + 2.1221403173600002e+06 lambda_var[0,34]
   + 2.1221403173600002e+06 lambda_var[0,35]
   + 2.1221403173600002e+06 lambda_var[0,36] + 436189.11 lambda_var[1,0]
   + 128040.38821 lambda_var[1,1] + 128040.38821 lambda_var[1,2]
   + 598774.31035 lambda_var[1,3] + 265698.79438 lambda_var[1,4]
   + 265698.79438 lambda_var[1,5] + 265698.79438 lambda_var[1,6]
   + 265698.79438 lambda_var[1,7] + 3.2412047619599998e+06 lambda_var[1,9]
   + 3.2412047619599998e+06 lambda_var[1,10]
   + 3.2412047619599998e+06 lambda_var[1,11]
   + 265698.79438 lambda_var[1,12] + 265698.79438 lambda_var[1,13]
   + 265698.79438 lambda_var[1,14]
   + 3.2412047619599998e+06 lambda_var[1,15]
   + 3.2412047619599998e+06 lambda_var[1,16]
   + 3.2412047619599998e+06 lambda_var[1,17]
   + 3.2412047619599998e+06 lambda_var[1,18]
   + 265698.79438 lambda_var[1,19] + 265698.79438 lambda_var[1,20]
   + 265698.79438 lambda_var[1,21] + 80000 lambda_var[1,22]
   + 265698.79438 lambda_var[1,23] + 265698.79438 lambda_var[1,24]
   + 265698.79438 lambda_var[1,26] + 265698.79438 lambda_var[1,27]
   + 265698.79438 lambda_var[1,28] + 265698.79438 lambda_var[1,29]
   + 265698.79438 lambda_var[1,30] + 265698.79438 lambda_var[1,31]
   + 265698.79438 lambda_var[1,32] + 265698.79438 lambda_var[1,33]
   + 265698.79438 lambda_var[1,34] + 265698.79438 lambda_var[1,35]
   + 265698.79438 lambda_var[1,36] <= 5.000005e+06
 MAB[59,1]: 2.6363533799999999e+06 lambda_var[0,0]
   + 2.5962472870200002e+06 lambda_var[0,1]
   + 2.5962472870200002e+06 lambda_var[0,2]
   + 1.0563924167299999e+06 lambda_var[0,3]
   + 1.0563924167299999e+06 lambda_var[0,4]
   + 1.0563924167299999e+06 lambda_var[0,5]
   + 1.0563924167299999e+06 lambda_var[0,6]
   + 1.0563924167299999e+06 lambda_var[0,7]
   + 2.5962472870200002e+06 lambda_var[0,8]
   + 1.0563924167299999e+06 lambda_var[0,9]
   + 1.0563924167299999e+06 lambda_var[0,10]
   + 1.0563924167299999e+06 lambda_var[0,11]
   + 1.0563924167299999e+06 lambda_var[0,12]
   + 1.0563924167299999e+06 lambda_var[0,13]
   + 1.0563924167299999e+06 lambda_var[0,14]
   + 1.0563924167299999e+06 lambda_var[0,15]
   + 1.0563924167299999e+06 lambda_var[0,16]
   + 1.0563924167299999e+06 lambda_var[0,17]
   + 1.0563924167299999e+06 lambda_var[0,18]
   + 1.0563924167299999e+06 lambda_var[0,19]
   + 1.0563924167299999e+06 lambda_var[0,20]
   + 1.0563924167299999e+06 lambda_var[0,21]
   + 2.5962472870200002e+06 lambda_var[0,22]
   + 1.0563924167299999e+06 lambda_var[0,23]
   + 1.0563924167299999e+06 lambda_var[0,24]
   + 2.5962472870200002e+06 lambda_var[0,25] + 3.12e+06 lambda_var[0,26]
   + 3.12e+06 lambda_var[0,27] + 3.12e+06 lambda_var[0,28]
   + 3.12e+06 lambda_var[0,29] + 3.12e+06 lambda_var[0,30]
   + 3.12e+06 lambda_var[0,31] + 3.12e+06 lambda_var[0,32]
   + 3.12e+06 lambda_var[0,33] + 3.12e+06 lambda_var[0,34]
   + 3.12e+06 lambda_var[0,35] + 3.12e+06 lambda_var[0,36]
   + 718911.47 lambda_var[1,0] + 359431.30677 lambda_var[1,1]
   + 359431.30677 lambda_var[1,2] + 966924.28893 lambda_var[1,3]
   + 679725.9522300001 lambda_var[1,4] + 679725.9522300001 lambda_var[1,5]
   + 679725.9522300001 lambda_var[1,6] + 679725.9522300001 lambda_var[1,7]
   + 3.0417828501599999e+06 lambda_var[1,10]
   + 3.0417828501599999e+06 lambda_var[1,11]
   + 679725.9522300001 lambda_var[1,12]
   + 679725.9522300001 lambda_var[1,13]
   + 679725.9522300001 lambda_var[1,14]
   + 3.0417828501599999e+06 lambda_var[1,16]
   + 3.0417828501599999e+06 lambda_var[1,18]
   + 679725.9522300001 lambda_var[1,19]
   + 679725.9522300001 lambda_var[1,20]
   + 679725.9522300001 lambda_var[1,21] + 211078.66161 lambda_var[1,22]
   + 679725.9522300001 lambda_var[1,23]
   + 679725.9522300001 lambda_var[1,24]
   + 679725.9522300001 lambda_var[1,26]
   + 679725.9522300001 lambda_var[1,27]
   + 679725.9522300001 lambda_var[1,28]
   + 679725.9522300001 lambda_var[1,29]
   + 679725.9522300001 lambda_var[1,30]
   + 679725.9522300001 lambda_var[1,31]
   + 679725.9522300001 lambda_var[1,32]
   + 679725.9522300001 lambda_var[1,33]
   + 679725.9522300001 lambda_var[1,34]
   + 679725.9522300001 lambda_var[1,35]
   + 679725.9522300001 lambda_var[1,36] <= 5.000005e+06
 MAB[60,1]: 3.12e+06 lambda_var[0,0]
   + 1.6817045249399999e+06 lambda_var[0,3]
   + 1.6817045249399999e+06 lambda_var[0,4]
   + 1.6817045249399999e+06 lambda_var[0,5]
   + 1.6817045249399999e+06 lambda_var[0,6]
   + 1.6817045249399999e+06 lambda_var[0,7]
   + 1.6817045249399999e+06 lambda_var[0,9]
   + 1.6817045249399999e+06 lambda_var[0,10]
   + 1.6817045249399999e+06 lambda_var[0,11]
   + 1.6817045249399999e+06 lambda_var[0,12]
   + 1.6817045249399999e+06 lambda_var[0,13]
   + 1.6817045249399999e+06 lambda_var[0,14]
   + 1.6817045249399999e+06 lambda_var[0,15]
   + 1.6817045249399999e+06 lambda_var[0,16]
   + 1.6817045249399999e+06 lambda_var[0,17]
   + 1.6817045249399999e+06 lambda_var[0,18]
   + 1.6817045249399999e+06 lambda_var[0,19]
   + 1.6817045249399999e+06 lambda_var[0,20]
   + 1.6817045249399999e+06 lambda_var[0,21]
   + 1.6817045249399999e+06 lambda_var[0,23]
   + 1.6817045249399999e+06 lambda_var[0,24]
   + 2.7157277726500002e+06 lambda_var[0,27] + 951678.65 lambda_var[1,0]
   + 616755.86208 lambda_var[1,1] + 616755.86208 lambda_var[1,2]
   + 1.2112622286e+06 lambda_var[1,3] + 1.03494540425e+06 lambda_var[1,4]
   + 1.03494540425e+06 lambda_var[1,5] + 1.03494540425e+06 lambda_var[1,6]
   + 1.03494540425e+06 lambda_var[1,7] + 3.4963686634e+06 lambda_var[1,10]
   + 3.4963686634e+06 lambda_var[1,11] + 1.03494540425e+06 lambda_var[1,12]
   + 1.03494540425e+06 lambda_var[1,13]
   + 1.03494540425e+06 lambda_var[1,14] + 3.4963686634e+06 lambda_var[1,16]
   + 3.4963686634e+06 lambda_var[1,18] + 1.03494540425e+06 lambda_var[1,19]
   + 1.03494540425e+06 lambda_var[1,20]
   + 1.03494540425e+06 lambda_var[1,21] + 331606.53093 lambda_var[1,22]
   + 1.03494540425e+06 lambda_var[1,23]
   + 1.03494540425e+06 lambda_var[1,24]
   + 1.03494540425e+06 lambda_var[1,26]
   + 1.03494540425e+06 lambda_var[1,27]
   + 1.03494540425e+06 lambda_var[1,28]
   + 1.03494540425e+06 lambda_var[1,29]
   + 1.03494540425e+06 lambda_var[1,30]
   + 1.03494540425e+06 lambda_var[1,31]
   + 1.03494540425e+06 lambda_var[1,32]
   + 1.03494540425e+06 lambda_var[1,33]
   + 1.03494540425e+06 lambda_var[1,34]
   + 1.03494540425e+06 lambda_var[1,35]
   + 1.03494540425e+06 lambda_var[1,36] <= 5.000005e+06
 Convexity[1]: lambda_var[1,0] + lambda_var[1,1] + lambda_var[1,2]
   + lambda_var[1,3] + lambda_var[1,4] + lambda_var[1,5] + lambda_var[1,6]
   + lambda_var[1,7] + lambda_var[1,8] + lambda_var[1,9] + lambda_var[1,10]
   + lambda_var[1,11] + lambda_var[1,12] + lambda_var[1,13]
   + lambda_var[1,14] + lambda_var[1,15] + lambda_var[1,16]
   + lambda_var[1,17] + lambda_var[1,18] + lambda_var[1,19]
   + lambda_var[1,20] + lambda_var[1,21] + lambda_var[1,22]
   + lambda_var[1,23] + lambda_var[1,24] + lambda_var[1,25]
   + lambda_var[1,26] + lambda_var[1,27] + lambda_var[1,28]
   + lambda_var[1,29] + lambda_var[1,30] + lambda_var[1,31]
   + lambda_var[1,32] + lambda_var[1,33] + lambda_var[1,34]
   + lambda_var[1,35] + lambda_var[1,36] = 1
 EOH[1]: 3.12e+06 lambda_var[0,0] + 1.6817045249399999e+06 lambda_var[0,3]
   + 1.6817045249399999e+06 lambda_var[0,4]
   + 1.6817045249399999e+06 lambda_var[0,5]
   + 1.6817045249399999e+06 lambda_var[0,6]
   + 1.6817045249399999e+06 lambda_var[0,7]
   + 1.6817045249399999e+06 lambda_var[0,9]
   + 1.6817045249399999e+06 lambda_var[0,10]
   + 1.6817045249399999e+06 lambda_var[0,11]
   + 1.6817045249399999e+06 lambda_var[0,12]
   + 1.6817045249399999e+06 lambda_var[0,13]
   + 1.6817045249399999e+06 lambda_var[0,14]
   + 1.6817045249399999e+06 lambda_var[0,15]
   + 1.6817045249399999e+06 lambda_var[0,16]
   + 1.6817045249399999e+06 lambda_var[0,17]
   + 1.6817045249399999e+06 lambda_var[0,18]
   + 1.6817045249399999e+06 lambda_var[0,19]
   + 1.6817045249399999e+06 lambda_var[0,20]
   + 1.6817045249399999e+06 lambda_var[0,21]
   + 1.6817045249399999e+06 lambda_var[0,23]
   + 1.6817045249399999e+06 lambda_var[0,24]
   + 2.7157277726500002e+06 lambda_var[0,27] + 951678.65 lambda_var[1,0]
   + 616755.86208 lambda_var[1,1] + 616755.86208 lambda_var[1,2]
   + 1.2112622286e+06 lambda_var[1,3] + 1.03494540425e+06 lambda_var[1,4]
   + 1.03494540425e+06 lambda_var[1,5] + 1.03494540425e+06 lambda_var[1,6]
   + 1.03494540425e+06 lambda_var[1,7] + 3.4963686634e+06 lambda_var[1,10]
   + 3.4963686634e+06 lambda_var[1,11] + 1.03494540425e+06 lambda_var[1,12]
   + 1.03494540425e+06 lambda_var[1,13]
   + 1.03494540425e+06 lambda_var[1,14] + 3.4963686634e+06 lambda_var[1,16]
   + 3.4963686634e+06 lambda_var[1,18] + 1.03494540425e+06 lambda_var[1,19]
   + 1.03494540425e+06 lambda_var[1,20]
   + 1.03494540425e+06 lambda_var[1,21] + 331606.53093 lambda_var[1,22]
   + 1.03494540425e+06 lambda_var[1,23]
   + 1.03494540425e+06 lambda_var[1,24]
   + 1.03494540425e+06 lambda_var[1,26]
   + 1.03494540425e+06 lambda_var[1,27]
   + 1.03494540425e+06 lambda_var[1,28]
   + 1.03494540425e+06 lambda_var[1,29]
   + 1.03494540425e+06 lambda_var[1,30]
   + 1.03494540425e+06 lambda_var[1,31]
   + 1.03494540425e+06 lambda_var[1,32]
   + 1.03494540425e+06 lambda_var[1,33]
   + 1.03494540425e+06 lambda_var[1,34]
   + 1.03494540425e+06 lambda_var[1,35]
   + 1.03494540425e+06 lambda_var[1,36] >= 3.99996e+06
 deploy_bin_tracking[5,0]: lambda_var[0,3] + lambda_var[0,4]
   + lambda_var[0,5] + lambda_var[0,6] + lambda_var[0,7] + lambda_var[0,9]
   + lambda_var[0,10] + lambda_var[0,11] + lambda_var[0,12]
   + lambda_var[0,13] + lambda_var[0,14] + lambda_var[0,15]
   + lambda_var[0,16] + lambda_var[0,17] + lambda_var[0,18]
   + lambda_var[0,19] + lambda_var[0,20] + lambda_var[0,21]
   + lambda_var[0,23] + lambda_var[0,24] + lambda_var[0,25]
   + lambda_var[0,26] + lambda_var[0,27] + lambda_var[0,28]
   + lambda_var[0,29] + lambda_var[0,30] + lambda_var[0,31]
   + lambda_var[0,32] + lambda_var[0,33] + lambda_var[0,34]
   + lambda_var[0,35] + lambda_var[0,36] - deploy_bin[0,5] = 0
 UP-Branch: deploy_bin[0,5] = 1
Bounds
 deploy_bin[0,5] free
Binaries
 lambda_var[0,0] lambda_var[0,1] lambda_var[0,2] lambda_var[0,3]
 lambda_var[0,4] lambda_var[0,5] lambda_var[0,6] lambda_var[0,7]
 lambda_var[0,8] lambda_var[0,9] lambda_var[0,10] lambda_var[0,11]
 lambda_var[0,12] lambda_var[0,13] lambda_var[0,14] lambda_var[0,15]
 lambda_var[0,16] lambda_var[0,17] lambda_var[0,18] lambda_var[0,19]
 lambda_var[0,20] lambda_var[0,21] lambda_var[0,22] lambda_var[0,23]
 lambda_var[0,24] lambda_var[0,25] lambda_var[0,26] lambda_var[0,27]
 lambda_var[0,28] lambda_var[0,29] lambda_var[0,30] lambda_var[0,31]
 lambda_var[0,32] lambda_var[0,33] lambda_var[0,34] lambda_var[0,35]
 lambda_var[0,36] lambda_var[1,0] lambda_var[1,1] lambda_var[1,2]
 lambda_var[1,3] lambda_var[1,4] lambda_var[1,5] lambda_var[1,6]
 lambda_var[1,7] lambda_var[1,8] lambda_var[1,9] lambda_var[1,10]
 lambda_var[1,11] lambda_var[1,12] lambda_var[1,13] lambda_var[1,14]
 lambda_var[1,15] lambda_var[1,16] lambda_var[1,17] lambda_var[1,18]
 lambda_var[1,19] lambda_var[1,20] lambda_var[1,21] lambda_var[1,22]
 lambda_var[1,23] lambda_var[1,24] lambda_var[1,25] lambda_var[1,26]
 lambda_var[1,27] lambda_var[1,28] lambda_var[1,29] lambda_var[1,30]
 lambda_var[1,31] lambda_var[1,32] lambda_var[1,33] lambda_var[1,34]
 lambda_var[1,35] lambda_var[1,36]
End
